010101000110100
001100001011101
000010000001101
001011101000010
000001110111011
010010110110001
101100001000000
110111001100101
011101100110010
101110010001000
000110001101101
111011011010110
010100100000011
000010110011101
100001011010010
110111000100000
011010010111001
100100000011101
110110100001100
001011101000010
000001101101011
000010110101101
100101011100110
010000001101100
011010010110011
001100101001000
000111001101101
111001000000111
001101110111011
001010110010101
110100001011100
010000001000101
011011010110100
101101100011110
010010000001000
100011010010110
001101101011011
010010110111001
110011011011110
110111000100000
